p tw 151 397
0 1
0 2
0 3
0 4
0 59
0 78
0 79
1 2
1 3
1 4
1 113
1 139
2 3
2 4
2 38
2 39
3 4
3 75
3 76
4 58
4 98
4 117
4 121
4 122
5 6
5 7
5 44
6 7
6 119
6 134
7 99
7 100
7 101
8 9
8 21
8 65
8 66
9 23
10 11
10 12
10 13
10 14
10 25
10 26
10 27
10 28
10 29
11 12
11 13
11 14
11 109
11 124
11 125
11 126
12 13
12 14
12 24
12 90
13 14
13 149
14 41
14 63
14 112
15 16
15 17
15 18
15 19
15 20
15 67
15 72
15 88
15 150
16 17
16 18
16 19
16 20
16 68
16 73
16 89
17 18
17 19
17 20
17 70
18 19
18 20
18 71
19 20
19 69
20 48
20 49
20 50
20 51
20 52
21 22
21 23
21 65
21 66
22 23
22 102
22 103
22 104
24 25
24 90
25 26
25 27
25 28
25 29
26 27
26 28
26 29
26 124
27 28
27 29
27 125
28 29
28 84
28 109
28 110
28 111
28 112
29 90
29 126
29 149
30 31
30 74
30 80
31 77
32 33
32 114
33 94
33 95
34 35
34 54
34 120
35 55
35 123
36 37
36 61
36 77
36 80
36 98
37 74
38 39
38 75
38 121
38 139
39 113
40 41
40 42
40 43
40 81
40 82
40 83
40 84
41 42
41 43
41 63
41 112
42 43
42 64
42 110
42 129
43 60
43 96
43 120
43 123
44 99
44 119
45 46
45 47
45 137
45 142
45 146
46 47
46 141
47 106
47 135
47 136
48 49
48 50
48 51
48 52
48 70
48 71
48 72
48 73
49 50
49 51
49 52
49 57
49 58
49 59
50 51
50 52
50 78
50 122
50 150
51 52
51 130
51 147
52 79
52 131
52 144
52 145
53 54
53 55
53 56
53 96
53 97
54 55
54 56
54 120
55 56
55 123
56 60
56 61
56 62
56 63
56 64
57 58
57 59
57 102
58 59
58 98
58 117
58 121
58 122
59 78
59 79
60 61
60 62
60 63
60 64
60 96
60 120
60 123
61 62
61 63
61 64
61 77
61 80
61 98
62 63
62 64
62 97
63 64
63 112
64 110
64 129
65 66
65 145
66 101
66 130
66 131
67 68
67 69
67 72
67 88
67 150
68 69
68 73
68 89
70 71
70 72
70 73
71 72
71 73
72 73
72 88
72 150
73 89
74 80
75 76
75 121
75 139
76 117
77 80
77 98
78 79
78 122
78 150
79 131
79 144
79 145
80 98
81 82
81 83
81 84
81 146
82 83
82 84
82 92
82 137
82 138
83 84
83 140
84 109
84 110
84 111
84 112
85 86
85 87
85 108
86 87
86 91
86 92
86 93
87 107
87 118
88 89
88 150
90 126
90 149
91 92
91 93
91 118
92 93
92 137
92 138
93 107
93 108
94 95
94 114
95 105
95 106
96 97
96 120
96 123
98 117
98 121
98 122
99 100
99 101
99 119
100 101
100 134
101 130
101 131
102 103
102 104
103 104
103 148
104 132
104 143
105 106
105 127
106 135
106 136
107 108
107 118
109 110
109 111
109 112
109 124
109 125
109 126
110 111
110 112
110 129
111 112
111 138
111 140
113 139
115 116
115 128
116 133
117 121
117 122
119 134
120 123
121 122
121 139
122 150
124 125
124 126
125 126
126 149
127 135
128 132
128 133
129 136
130 131
130 147
131 144
131 145
132 133
132 143
135 136
137 138
137 142
137 146
138 140
141 142
142 146
143 148
144 145
144 147
